p cnf 900 458
-1 -2 3 0
-3 1 0
-3 2 0
4 3 5 0
4 -3 -5 0
-4 3 -5 0
-4 -3 5 0
6 7 4 0
6 -7 -4 0
-6 7 -4 0
-6 -7 4 0
8 2 1 0
8 -2 -1 0
-8 2 -1 0
-8 -2 1 0
9 10 8 0
9 -10 -8 0
-9 10 -8 0
-9 -10 8 0
11 12 2 0
11 -12 -2 0
-11 12 -2 0
-11 -12 2 0
13 -11 0
13 -9 0
13 -6 0
11 9 6 -13 0
-14 18 0
-14 -17 0
-14 16 0
-14 -15 0
-14 -19 0
-14 20 0
-14 13 0
-21 -22 23 0
-23 21 0
-23 22 0
24 23 25 0
24 -23 -25 0
-24 23 -25 0
-24 -23 25 0
26 27 24 0
26 -27 -24 0
-26 27 -24 0
-26 -27 24 0
28 22 21 0
28 -22 -21 0
-28 22 -21 0
-28 -22 21 0
29 30 28 0
29 -30 -28 0
-29 30 -28 0
-29 -30 28 0
31 -32 0
31 -29 0
31 -26 0
32 29 26 -31 0
-33 37 0
-33 -36 0
-33 35 0
-33 -34 0
-33 -38 0
-33 39 0
-33 31 0
-40 -41 42 0
-42 40 0
-42 41 0
43 42 44 0
43 -42 -44 0
-43 42 -44 0
-43 -42 44 0
45 46 43 0
45 -46 -43 0
-45 46 -43 0
-45 -46 43 0
47 41 40 0
47 -41 -40 0
-47 41 -40 0
-47 -41 40 0
48 49 47 0
48 -49 -47 0
-48 49 -47 0
-48 -49 47 0
50 -51 0
50 -48 0
50 -45 0
51 48 45 -50 0
-52 56 0
-52 -55 0
-52 54 0
-52 -53 0
-52 -57 0
-52 58 0
-52 50 0
-59 -60 61 0
-61 59 0
-61 60 0
62 61 63 0
62 -61 -63 0
-62 61 -63 0
-62 -61 63 0
64 65 62 0
64 -65 -62 0
-64 65 -62 0
-64 -65 62 0
66 60 59 0
66 -60 -59 0
-66 60 -59 0
-66 -60 59 0
67 68 66 0
67 -68 -66 0
-67 68 -66 0
-67 -68 66 0
69 -70 0
69 -67 0
69 -64 0
70 67 64 -69 0
-71 75 0
-71 -74 0
-71 73 0
-71 -72 0
-71 -76 0
-71 77 0
-71 69 0
-78 -79 80 0
-80 78 0
-80 79 0
81 80 82 0
81 -80 -82 0
-81 80 -82 0
-81 -80 82 0
83 84 81 0
83 -84 -81 0
-83 84 -81 0
-83 -84 81 0
85 79 78 0
85 -79 -78 0
-85 79 -78 0
-85 -79 78 0
86 87 85 0
86 -87 -85 0
-86 87 -85 0
-86 -87 85 0
88 -89 0
88 -86 0
88 -83 0
89 86 83 -88 0
-90 94 0
-90 -93 0
-90 92 0
-90 -91 0
-90 -95 0
-90 96 0
-90 88 0
-97 -98 99 0
-99 97 0
-99 98 0
100 99 101 0
100 -99 -101 0
-100 99 -101 0
-100 -99 101 0
102 103 100 0
102 -103 -100 0
-102 103 -100 0
-102 -103 100 0
104 98 97 0
104 -98 -97 0
-104 98 -97 0
-104 -98 97 0
105 106 104 0
105 -106 -104 0
-105 106 -104 0
-105 -106 104 0
107 -108 0
107 -105 0
107 -102 0
108 105 102 -107 0
-109 113 0
-109 -112 0
-109 111 0
-109 -110 0
-109 -114 0
-109 115 0
-109 107 0
-116 -117 118 0
-118 116 0
-118 117 0
119 118 120 0
119 -118 -120 0
-119 118 -120 0
-119 -118 120 0
121 122 119 0
121 -122 -119 0
-121 122 -119 0
-121 -122 119 0
123 117 116 0
123 -117 -116 0
-123 117 -116 0
-123 -117 116 0
124 125 123 0
124 -125 -123 0
-124 125 -123 0
-124 -125 123 0
126 -127 0
126 -124 0
126 -121 0
127 124 121 -126 0
-128 132 0
-128 -131 0
-128 130 0
-128 -129 0
-128 -133 0
-128 134 0
-128 126 0
-135 -136 137 0
-137 135 0
-137 136 0
138 137 139 0
138 -137 -139 0
-138 137 -139 0
-138 -137 139 0
140 141 138 0
140 -141 -138 0
-140 141 -138 0
-140 -141 138 0
142 136 135 0
142 -136 -135 0
-142 136 -135 0
-142 -136 135 0
143 144 142 0
143 -144 -142 0
-143 144 -142 0
-143 -144 142 0
145 -146 0
145 -143 0
145 -140 0
146 143 140 -145 0
-147 151 0
-147 -150 0
-147 149 0
-147 -148 0
-147 -152 0
-147 153 0
-147 145 0
-154 -155 156 0
-156 154 0
-156 155 0
157 156 158 0
157 -156 -158 0
-157 156 -158 0
-157 -156 158 0
159 160 157 0
159 -160 -157 0
-159 160 -157 0
-159 -160 157 0
161 155 154 0
161 -155 -154 0
-161 155 -154 0
-161 -155 154 0
162 163 161 0
162 -163 -161 0
-162 163 -161 0
-162 -163 161 0
164 -165 0
164 -162 0
164 -159 0
165 162 159 -164 0
-166 170 0
-166 -169 0
-166 168 0
-166 -167 0
-166 -171 0
-166 172 0
-166 164 0
-173 -174 175 0
-175 173 0
-175 174 0
176 175 177 0
176 -175 -177 0
-176 175 -177 0
-176 -175 177 0
178 179 176 0
178 -179 -176 0
-178 179 -176 0
-178 -179 176 0
180 174 173 0
180 -174 -173 0
-180 174 -173 0
-180 -174 173 0
181 182 180 0
181 -182 -180 0
-181 182 -180 0
-181 -182 180 0
183 -184 0
183 -181 0
183 -178 0
184 181 178 -183 0
-185 189 0
-185 -188 0
-185 187 0
-185 -186 0
-185 -190 0
-185 191 0
-185 183 0
-192 -193 194 0
-194 192 0
-194 193 0
195 194 196 0
195 -194 -196 0
-195 194 -196 0
-195 -194 196 0
197 198 195 0
197 -198 -195 0
-197 198 -195 0
-197 -198 195 0
199 193 192 0
199 -193 -192 0
-199 193 -192 0
-199 -193 192 0
200 201 199 0
200 -201 -199 0
-200 201 -199 0
-200 -201 199 0
202 -203 0
202 -200 0
202 -197 0
203 200 197 -202 0
-204 208 0
-204 -207 0
-204 206 0
-204 -205 0
-204 -209 0
-204 210 0
-204 202 0
-211 -212 213 0
-213 211 0
-213 212 0
214 213 215 0
214 -213 -215 0
-214 213 -215 0
-214 -213 215 0
216 217 214 0
216 -217 -214 0
-216 217 -214 0
-216 -217 214 0
218 212 211 0
218 -212 -211 0
-218 212 -211 0
-218 -212 211 0
219 220 218 0
219 -220 -218 0
-219 220 -218 0
-219 -220 218 0
221 -222 0
221 -219 0
221 -216 0
222 219 216 -221 0
-223 227 0
-223 -226 0
-223 225 0
-223 -224 0
-223 -228 0
-223 229 0
-223 221 0
-230 -231 232 0
-232 230 0
-232 231 0
233 232 234 0
233 -232 -234 0
-233 232 -234 0
-233 -232 234 0
235 236 233 0
235 -236 -233 0
-235 236 -233 0
-235 -236 233 0
237 231 230 0
237 -231 -230 0
-237 231 -230 0
-237 -231 230 0
238 239 237 0
238 -239 -237 0
-238 239 -237 0
-238 -239 237 0
240 -241 0
240 -238 0
240 -235 0
241 238 235 -240 0
-242 246 0
-242 -245 0
-242 244 0
-242 -243 0
-242 -247 0
-242 248 0
-242 240 0
-249 -250 251 0
-251 249 0
-251 250 0
252 251 253 0
252 -251 -253 0
-252 251 -253 0
-252 -251 253 0
254 255 252 0
254 -255 -252 0
-254 255 -252 0
-254 -255 252 0
256 250 249 0
256 -250 -249 0
-256 250 -249 0
-256 -250 249 0
257 258 256 0
257 -258 -256 0
-257 258 -256 0
-257 -258 256 0
259 -260 0
259 -257 0
259 -254 0
260 257 254 -259 0
-261 265 0
-261 -264 0
-261 263 0
-261 -262 0
-261 -266 0
-261 267 0
-261 259 0
-268 -269 270 0
-270 268 0
-270 269 0
271 270 272 0
271 -270 -272 0
-271 270 -272 0
-271 -270 272 0
273 274 271 0
273 -274 -271 0
-273 274 -271 0
-273 -274 271 0
275 269 268 0
275 -269 -268 0
-275 269 -268 0
-275 -269 268 0
276 277 275 0
276 -277 -275 0
-276 277 -275 0
-276 -277 275 0
278 -279 0
278 -276 0
278 -273 0
279 276 273 -278 0
-280 284 0
-280 -283 0
-280 282 0
-280 -281 0
-280 -285 0
-280 286 0
-280 278 0
-287 -288 289 0
-289 287 0
-289 288 0
290 289 291 0
290 -289 -291 0
-290 289 -291 0
-290 -289 291 0
292 293 290 0
292 -293 -290 0
-292 293 -290 0
-292 -293 290 0
294 288 287 0
294 -288 -287 0
-294 288 -287 0
-294 -288 287 0
295 296 294 0
295 -296 -294 0
-295 296 -294 0
-295 -296 294 0
297 -298 0
297 -295 0
297 -292 0
298 295 292 -297 0
-299 303 0
-299 -302 0
-299 301 0
-299 -300 0
-299 -304 0
-299 305 0
-299 297 0
-306 -307 308 0
-308 306 0
-308 307 0